K=5;
N=7;
P=[5 29 42 46 9];
R=[11 9 42 3 37];
A=[4 6 2 5 5];
C=[10 20 22 17 37];
M=[
	[0 15 43 31 24 30 22]
	[15 0 40 25 38 23 46]
	[43 40 0 19 1 50 46]
	[31 25 19 0 40 32 15]
	[24 38 1 40 0 18 50]
	[30 23 50 32 18 0 2]
	[22 46 46 15 50 2 0]
];